200
150
100
100
100
100
99
99
99
98
97
97
96
96
96
95
95
95
94
94
93
92
92
92
91
91
90
89
87
87
86
86
86
86
86
85
84
84
83
83
81
80
80
79
78
78
77
76
76
76
73
72
72
71
70
70
67
67
67
66
66
65
63
63
62
62
61
60
60
59
58
57
56
56
56
55
55
55
55
54
54
54
53
53
53
52
52
51
51
50
50
50
49
48
48
47
46
46
44
44
44
44
44
43
41
41
40
40
40
39
39
39
39
36
36
36
36
36
35
35
35
35
33
33
33
32
32
32
32
31
30
30
29
29
29
29
28
28
26
26
26
25
25
25
25
25
24
23
23
22
22
22
22
21
21
21
21
21
20
20
20
20
20
19
18
17
17
17
17
15
15
15
14
13
13
12
12
12
12
11
10
10
9
9
9
8
8
8
7
7
6
6
5
4
4
4
3
3
3
2
1
1
